POSSf_CH3                               
   1.00000000000000     
    20.0000000000000000    0.0000000000000000    0.0000000000000000
     0.0000000000000000   20.0000000000000000    0.0000000000000000
     0.0000000000000000    0.0000000000000000   20.0000000000000000
   O    Si   H    C    Ar
    12     8    10     1     1
Selective dynamics
Direct
  0.3823499977499978  0.5767300129000006  0.5002099871500008   F   F   F
  0.4824452872968994  0.6170516722359483  0.4330405706355064   T   T   T
  0.4762763915340291  0.6096510580665384  0.5745593671594174   T   T   T
  0.3823400140000004  0.4604099988999977  0.4321399927000016   F   F   F
  0.4884897882315106  0.5010030620382759  0.3629753620401982   T   T   T
  0.5927489514781490  0.5585725455279936  0.4337701708465931   T   T   T
  0.4779398468295187  0.4983936011850328  0.6468532470647537   T   T   T
  0.5089723382171987  0.3952762611266805  0.5774350342618679   T   T   T
  0.3820900023000036  0.4596099853499993  0.5668799876999984   F   F   F
  0.5866373926451838  0.5633708233993301  0.5848294043495001   T   T   T
  0.6013140935847294  0.4585473653167358  0.5147830159756270   T   T   T
  0.5115074643924993  0.4026765748654485  0.4421920487072284   T   T   T
  0.4436852000969963  0.6280797446401063  0.5041006810312385   T   T   T
  0.3555200099999993  0.4989700019499992  0.4996899962499981   F   F   F
  0.5281393681965070  0.5688507035799217  0.3844532248941046   T   T   T
  0.4515405028158464  0.4358537021751387  0.3968854017783317   T   T   T
  0.4447351115606885  0.4329128307762373  0.6121717709335706   T   T   T
  0.5172302280162587  0.5665341816986322  0.6288788708480693   T   T   T
  0.5543470375029498  0.3863724179950010  0.5093041972241135   T   T   T
  0.6143417601568579  0.5389384048426403  0.5114875862281565   T   T   T
  0.4243391416969644  0.6990341890553372  0.5067935119747730   T   T   T
  0.2818207773172037  0.4978254634903474  0.4995708555220571   T   T   T
  0.5498420469347773  0.6041712298852072  0.3235833923255728   T   T   T
  0.4314178027199564  0.3887933017967641  0.3443070454594117   T   T   T
  0.4152560326559405  0.3900503709854347  0.6641851497074250   T   T   T
  0.5293142462765879  0.6032495412420473  0.6910261721723812   T   T   T
  0.5859138163158116  0.3198220584721179  0.5065062654863928   T   T   T
  0.5701032689874445  0.8882403624582855  0.4692725957090538   T   T   T
  0.5563736001164206  0.8832326269690499  0.5672460240831555   T   T   T
  0.5353163134712358  0.8128971447513408  0.5099172994043855   T   T   T
  0.5523038345778686  0.8659655964310229  0.5157924593014988   T   T   T
  0.8321124684967540  0.5858629145169684  0.4972370412614004   T   T   T
 
  0.00000000E+00  0.00000000E+00  0.00000000E+00
 -0.11698208E-01  0.52014593E-02 -0.35580905E-02
 -0.11344811E-01  0.51846340E-02  0.50557168E-02
  0.00000000E+00  0.00000000E+00  0.00000000E+00
  0.28538369E-02  0.41856453E-02 -0.30665350E-03
 -0.40632163E-02  0.61998396E-02  0.82421440E-02
  0.48587524E-03  0.55362641E-02  0.13547558E-02
  0.44927761E-02 -0.53373207E-02  0.86984745E-03
  0.00000000E+00  0.00000000E+00  0.00000000E+00
 -0.51491763E-02  0.71139310E-02 -0.41121748E-02
  0.41561443E-02 -0.20037751E-02  0.71593142E-03
  0.59688426E-02 -0.20753833E-02  0.20141566E-02
 -0.49173330E-02  0.37804614E-02 -0.14809034E-02
  0.00000000E+00  0.00000000E+00  0.00000000E+00
  0.12440342E-02  0.72588376E-02  0.49985692E-02
  0.39309230E-02  0.80641561E-02 -0.26973084E-02
  0.10131113E-02  0.51018681E-02  0.35627200E-02
 -0.71501230E-03  0.79637407E-02 -0.29593930E-02
  0.33605892E-02  0.19744393E-02  0.16060527E-02
  0.95936289E-02  0.13968251E-02  0.18987217E-02
 -0.12954204E-01  0.28564286E-02 -0.36836688E-02
 -0.24042684E-02 -0.87636406E-03 -0.15222426E-03
  0.89636479E-02  0.45472501E-02  0.53259727E-02
  0.66568671E-02  0.74123704E-02 -0.47111394E-02
 -0.21139638E-03  0.86374535E-02  0.68278330E-02
  0.66929176E-02  0.59819064E-02 -0.22114049E-02
  0.31439961E-03  0.55100857E-03 -0.31889555E-02
 -0.40893059E-01  0.51852105E-01 -0.19731965E-02
 -0.40413150E-01  0.55145984E-01  0.72637507E-02
 -0.21118795E-01  0.40570007E-01 -0.48169130E-02
 -0.41182653E-01  0.58764337E-01  0.42904742E-02
  0.24393111E-01  0.30182823E-01 -0.61268075E-04
 
           1
  0.100000000000000     
  0.10000000E+01  0.00000000E+00  0.00000000E+00  0.00000000E+00
  0.38235000E+00  0.57673001E+00  0.50020999E+00
  0.48238680E+00  0.61707768E+00  0.43302278E+00
  0.47621967E+00  0.60967698E+00  0.57458465E+00
  0.38234001E+00  0.46041000E+00  0.43213999E+00
  0.48850406E+00  0.50102399E+00  0.36297383E+00
  0.59272864E+00  0.55860354E+00  0.43381138E+00
  0.47794228E+00  0.49842128E+00  0.64686002E+00
  0.50899480E+00  0.39524957E+00  0.57743938E+00
  0.38209000E+00  0.45960999E+00  0.56687999E+00
  0.58661165E+00  0.56340639E+00  0.58480884E+00
  0.60133487E+00  0.45853735E+00  0.51478660E+00
  0.51153731E+00  0.40266620E+00  0.44220212E+00
  0.44366061E+00  0.62809865E+00  0.50409328E+00
  0.35552001E+00  0.49897000E+00  0.49969000E+00
  0.52814559E+00  0.56888700E+00  0.38447822E+00
  0.45156016E+00  0.43589402E+00  0.39687192E+00
  0.44474018E+00  0.43293834E+00  0.61218958E+00
  0.51722665E+00  0.56657400E+00  0.62886407E+00
  0.55436384E+00  0.38638229E+00  0.50931223E+00
  0.61438973E+00  0.53894539E+00  0.51149708E+00
  0.42427437E+00  0.69904847E+00  0.50677509E+00
  0.28180876E+00  0.49782108E+00  0.49957009E+00
  0.54988687E+00  0.60419397E+00  0.32361002E+00
  0.43145109E+00  0.38883036E+00  0.34428349E+00
  0.41525498E+00  0.39009356E+00  0.66421929E+00
  0.52934771E+00  0.60327945E+00  0.69101512E+00
  0.58591539E+00  0.31982481E+00  0.50649032E+00
  0.56989880E+00  0.88849962E+00  0.46926273E+00
  0.55617153E+00  0.88350836E+00  0.56728234E+00
  0.53521072E+00  0.81309999E+00  0.50989321E+00
  0.55209792E+00  0.86625942E+00  0.51581391E+00
  0.83223443E+00  0.58601383E+00  0.49723673E+00
  0.00000000E+00  0.00000000E+00  0.00000000E+00
 -0.58495280E-04  0.25973418E-04 -0.17773450E-04
 -0.56681395E-04  0.25814257E-04  0.25211830E-04
  0.00000000E+00  0.00000000E+00  0.00000000E+00
  0.14271854E-04  0.20906522E-04 -0.15214870E-05
 -0.20371447E-04  0.31016150E-04  0.41144018E-04
  0.23857523E-05  0.27643408E-04  0.67026356E-05
  0.22573477E-04 -0.26556480E-04  0.44260256E-05
  0.00000000E+00  0.00000000E+00  0.00000000E+00
 -0.25826680E-04  0.35589396E-04 -0.20586061E-04
  0.20795982E-04 -0.96314549E-05  0.36044094E-05
  0.29992581E-04 -0.10264014E-04  0.10077098E-04
 -0.24548906E-04  0.18827907E-04 -0.73338446E-05
  0.00000000E+00  0.00000000E+00  0.00000000E+00
  0.62244313E-05  0.36227313E-04  0.24952876E-04
  0.19602416E-04  0.40320346E-04 -0.13419237E-04
  0.50647874E-05  0.25532520E-04  0.17774427E-04
 -0.36274213E-05  0.39757174E-04 -0.14776997E-04
  0.16762972E-04  0.95959928E-05  0.79836873E-05
  0.47880344E-04  0.70710778E-05  0.95139808E-05
 -0.64530876E-04  0.14226567E-04 -0.18308499E-04
 -0.12186231E-04 -0.43971761E-05 -0.73805291E-06
  0.45045495E-04  0.22828807E-04  0.26688012E-04
  0.33164167E-04  0.37320953E-04 -0.23422739E-04
 -0.12349027E-05  0.43478834E-04  0.34200906E-04
  0.33413667E-04  0.29821600E-04 -0.11443798E-04
  0.10814742E-05  0.21785280E-05 -0.16006471E-04
 -0.20461593E-03  0.25819886E-03 -0.10956830E-04
 -0.20245512E-03  0.27465585E-03  0.37005316E-04
 -0.10598385E-03  0.20081638E-03 -0.24429985E-04
 -0.20583561E-03  0.29417082E-03  0.21513801E-04
  0.12196640E-03  0.15091584E-03 -0.31048449E-06
  0.00000000E+00  0.00000000E+00  0.00000000E+00
  0.00000000E+00  0.00000000E+00  0.00000000E+00
  0.00000000E+00  0.00000000E+00  0.00000000E+00
  0.00000000E+00  0.00000000E+00  0.00000000E+00
  0.00000000E+00  0.00000000E+00  0.00000000E+00
  0.00000000E+00  0.00000000E+00  0.00000000E+00
  0.00000000E+00  0.00000000E+00  0.00000000E+00
  0.00000000E+00  0.00000000E+00  0.00000000E+00
  0.00000000E+00  0.00000000E+00  0.00000000E+00
  0.00000000E+00  0.00000000E+00  0.00000000E+00
  0.00000000E+00  0.00000000E+00  0.00000000E+00
  0.00000000E+00  0.00000000E+00  0.00000000E+00
  0.00000000E+00  0.00000000E+00  0.00000000E+00
  0.00000000E+00  0.00000000E+00  0.00000000E+00
  0.00000000E+00  0.00000000E+00  0.00000000E+00
  0.00000000E+00  0.00000000E+00  0.00000000E+00
  0.00000000E+00  0.00000000E+00  0.00000000E+00
  0.00000000E+00  0.00000000E+00  0.00000000E+00
  0.00000000E+00  0.00000000E+00  0.00000000E+00
  0.00000000E+00  0.00000000E+00  0.00000000E+00
  0.00000000E+00  0.00000000E+00  0.00000000E+00
  0.00000000E+00  0.00000000E+00  0.00000000E+00
  0.00000000E+00  0.00000000E+00  0.00000000E+00
  0.00000000E+00  0.00000000E+00  0.00000000E+00
  0.00000000E+00  0.00000000E+00  0.00000000E+00
  0.00000000E+00  0.00000000E+00  0.00000000E+00
  0.00000000E+00  0.00000000E+00  0.00000000E+00
  0.00000000E+00  0.00000000E+00  0.00000000E+00
  0.00000000E+00  0.00000000E+00  0.00000000E+00
  0.00000000E+00  0.00000000E+00  0.00000000E+00
  0.00000000E+00  0.00000000E+00  0.00000000E+00
  0.00000000E+00  0.00000000E+00  0.00000000E+00
