POSSf_CH3
1.0
       20.0000000000         0.0000000000         0.0000000000
        0.0000000000        20.0000000000         0.0000000000
        0.0000000000         0.0000000000        20.0000000000
    O   Si    H    C    Ar
    12   8   10    1     1
Selective dynamics
Cartesian
     7.646999955        11.534600258        10.004199743    F F F
     9.846000075        12.352000475         8.677400351    T T T 
     9.829400182        12.326999903        11.372599602    T T T
     7.646800280         9.208199978         8.642799854    F F F
     9.842000008        10.029799938         7.312200069    T T T
    12.046600580        10.794199705         8.662400246    T T T
     9.839800000         9.975000024        12.686400414    T T T
     9.853199720         7.650399804        11.324000359    T T T
     7.641800046         9.192199707        11.337599754    F F F
    12.038400173        10.781199932        11.350799799    T T T
    12.055599689         8.460800052         9.996199608    T T T
     9.866799712         7.679200172         8.629599810    T T T
     8.923400044        12.573000193        10.021600723    T T T
     7.110400200         9.979400039         9.993799925    F F F
    10.759199858        11.312199831         7.785400152    T T T
     8.945400119         8.723800182         7.754399776    T T T
     8.936200142         8.683000207        12.218000889    T T T
    10.749399662        11.272599697        12.240600586    T T T
    10.777000189         7.430999875         9.979000092    T T T
    12.612400055        10.015200377        10.004799366    T T T
     8.417400122        13.952599764        10.031199455    T T T
     5.640799999         9.980800152         9.990999699    T T T
    11.243599653        12.015800476         6.588799953    T T T
     8.466200233         8.039799929         6.545000076    T T T
     8.451399803         7.978799939        13.413599730    T T T
    11.231000423        11.952799559        13.451800346    T T T
    11.272799969         6.047199965         9.967000484    T T T
    14.855799675         9.562600255         9.100199938    T T T
    14.853399992         9.496399760        10.880799294    T T T
    14.825999737        11.069799662        10.048000813    T T T
    14.457199574        10.035200119        10.008800030    T T T
    14.457199574         5.500000000        10.006799698    T T T

    0.00000000E+00      0.00000000E+00      0.00000000E+00
   -0.64415834E-03     -0.49271018E-02      0.33509008E-03
   -0.86728311E-03     -0.12291431E-02      0.17524368E-02
    0.00000000E+00      0.00000000E+00      0.00000000E+00
    0.18921906E-02     -0.30034656E-02     -0.52065612E-02
   -0.24389559E-03      0.36591463E-03      0.28135510E-03
   -0.34824846E-02     -0.11249033E-02      0.77694648E-02
    0.37238559E-03      0.20330350E-02      0.49562336E-02
    0.00000000E+00      0.00000000E+00      0.00000000E+00
    0.24187970E-02      0.15848810E-03      0.26978482E-02
    0.33399350E-02      0.61330973E-03      0.39033905E-02
    0.20856989E-02      0.12540312E-02     -0.23021252E-02
    0.31631396E-03     -0.13141273E-02      0.40405956E-02
    0.00000000E+00      0.00000000E+00      0.00000000E+00
   -0.53872773E-04     -0.21650587E-02     -0.15029723E-02
   -0.11720751E-02     -0.23653261E-02      0.10328914E-02
    0.15998145E-02     -0.16501227E-02      0.29466809E-02
   -0.23835799E-03     -0.28838187E-02      0.25087170E-02
    0.10047732E-02     -0.36441598E-02      0.84686038E-05
   -0.18573965E-02     -0.10964933E-02      0.24495382E-02
    0.56061773E-02      0.31856195E-05      0.96317626E-02
   -0.27164751E-02     -0.18018002E-02     -0.11883162E-03
    0.23348225E-02      0.20711217E-03      0.24265993E-03
   -0.32330551E-02     -0.25942899E-02      0.45134655E-02
    0.20193519E-02     -0.43480132E-02      0.13077528E-02
   -0.42815586E-02     -0.27253826E-02     -0.19528110E-03
   -0.17288494E-03     -0.42248809E-02      0.32227470E-02
    0.10048153E-01     -0.33575490E-02     -0.73980362E-02
    0.15589333E-01     -0.49908834E-02      0.69409342E-03
   -0.40101899E-02      0.12194181E-01      0.70649574E-02
   -0.37760379E-02      0.64901544E-02     -0.62806134E-03
    0.0                 0.085               0.0
 
